certificates/rado_a9_c133_N20.cnf
c Rad2 upper bound instance: x1 + 9*x2 - x3 = 133, interval [1,20]
p cnf 20 88
1 3 15 0
-1 -3 -15 0
1 12 16 0
-1 -12 -16 0
2 4 15 0
-2 -4 -15 0
2 13 16 0
-2 -13 -16 0
3 5 15 0
-3 -5 -15 0
3 14 16 0
-3 -14 -16 0
4 6 15 0
-4 -6 -15 0
4 15 16 0
-4 -15 -16 0
5 7 15 0
-5 -7 -15 0
5 16 0
-5 -16 0
6 8 15 0
-6 -8 -15 0
6 16 17 0
-6 -16 -17 0
7 9 15 0
-7 -9 -15 0
7 16 18 0
-7 -16 -18 0
1 8 14 0
-1 -8 -14 0
8 10 15 0
-8 -10 -15 0
8 16 19 0
-8 -16 -19 0
2 9 14 0
-2 -9 -14 0
9 11 15 0
-9 -11 -15 0
9 16 20 0
-9 -16 -20 0
3 10 14 0
-3 -10 -14 0
10 12 15 0
-10 -12 -15 0
4 11 14 0
-4 -11 -14 0
11 13 15 0
-11 -13 -15 0
5 12 14 0
-5 -12 -14 0
12 14 15 0
-12 -14 -15 0
6 13 14 0
-6 -13 -14 0
13 15 0
-13 -15 0
7 14 0
-7 -14 0
14 15 16 0
-14 -15 -16 0
8 14 15 0
-8 -14 -15 0
15 17 0
-15 -17 0
9 14 16 0
-9 -14 -16 0
15 16 18 0
-15 -16 -18 0
1 13 17 0
-1 -13 -17 0
10 14 17 0
-10 -14 -17 0
15 17 19 0
-15 -17 -19 0
2 13 18 0
-2 -13 -18 0
11 14 18 0
-11 -14 -18 0
15 18 20 0
-15 -18 -20 0
3 13 19 0
-3 -13 -19 0
12 14 19 0
-12 -14 -19 0
4 13 20 0
-4 -13 -20 0
13 14 20 0
-13 -14 -20 0
