certificates/rado_a9_c133_N20.drat
-18 -20 0
d -18 -15 -20 0
15 -19 0
-16 -15 0
-15 18 0
-20 0
-16 15 0
15 0
-13 0
-17 0
-16 0
18 0
4 0
14 0
1 0
5 0
6 0
9 0
2 0
0
